12 32 3 10
1 13 1 3 16 19 5 13 19 19 7 7 4 18 5 12 9 11 13 16 14 8 12 16 3 6 18 17 6 18 6 8 
15.94 11.57 14.87 4.2 11.39 15.71 4.58 15.13 3.12 9.51 13.82 8.78 0.04 7.72 9.17 5.83 5.18 5.33 5.63 2.76 15.77 10.01 2.91 7.14 14.81 5.06 5.91 2.1 13.32 0.74 14.5 10.21 
13.06 11.02 10.86 10.08 2.99 14.16 12.57 2.02 15.33 4.04 14.19 13.53 13.84 3.01 7.48 1.5 14.95 2.21 10.62 6.12 9.85 7.06 0.21 4.24 0.26 15.45 0.71 13.76 7.39 11.44 13.84 10.8 
9.95 4.25 11.71 14.47 15.67 2.83 8.96 2.51 13.79 1.1 5.33 6.15 4.49 4.9 4.07 14.77 11.75 13.65 2.46 14.97 9.72 0.3 7.26 12.13 14.57 3.03 1.9 13.29 9.31 8.93 0.5 11.87 
8 8 8 8 8 8 8 8 8 8 8 8 8 8 8 8 8 8 8 8 8 8 8 8 8 8 8 8 8 8 8 8 
1.14 6.97 14.47 11.22 13.58 14.27 1.85 6.18 7.02 11.16 12.99 9.97 9.37 1.95 13.43 12.21 1.61 9.64 5.44 2.47 9.72 12.01 2.79 10.72 7.18 5.94 5.82 9.26 1.38 7.53 4.1 4.16 
10.69 7.25 13.7 4.9 9.98 12.54 7.38 11.65 4.94 4.51 9.43 4.96 11.07 4.58 6.65 1.74 6.57 3.26 4.41 8.67 2.02 4.91 3.01 0.38 14.97 9.24 2.51 9.44 15.83 7.09 13.53 13.65 
4.88 5.84 15.84 15.89 2.35 1.03 6.93 0.54 2.16 2.02 13.07 0.73 14.21 11.58 0.68 7.94 8.56 4.48 2.1 10.8 7.34 7.48 8.12 11.23 1.95 14.2 15.14 8.85 13.54 1.35 5.35 10.23 
7.1 7.79 15.75 10.01 10.61 6.38 1.65 13.03 9.47 4.26 5.9 13.51 14.43 1.31 6.83 13.11 8.58 4.95 8.07 0.71 0.96 5.36 13.99 14.31 10.1 8.72 4.31 1.15 6.71 10.85 7.41 13.73 
3.96 0.75 12.07 14.86 0.37 3.34 9.53 8.62 7.57 8.02 15.32 11.57 2.84 0.88 0.94 0.14 7.75 5.82 0.41 2.47 8.67 3.37 3.85 5.49 7.62 1.37 0.61 3.91 8.08 1.47 14.22 12.45 
8.91 1.64 15.46 5.79 2.7 4.95 10.24 10.52 0.19 11.52 2.82 0.06 6.44 5.81 15.11 9.23 6.92 5.57 14.7 11.23 10.61 12.08 14.64 13.38 9.48 5.55 5.97 2.48 10.76 14.12 7.95 13.21 
8.47 2.88 1.13 6.68 12.15 3.88 10.77 5.4 12.31 8.39 11.52 8.25 6.71 0.7 11.59 10.28 16 15.45 10.79 0.79 4.44 13.56 15.22 2.9 15.97 10.03 13.35 1.17 7.71 0.47 2 6.43 
14.05 15.85 4.91 12.2 13.79 6.65 15.49 13.95 9.39 13.84 10.28 15.74 0.2 8.16 15.72 9.91 11.2 0.32 6.95 3.23 8.57 3.08 0.53 6.27 10.97 0.68 10.54 11.2 7.23 0.09 9.28 0.78 
1 1 1 1 1 1 1 1 1 1 1 1 1 1 1 1 1 1 1 1 1 1 1 1 1 1 1 1 1 1 1 1 
1 1 1 1 1 1 1 1 1 1 1 1 1 1 1 1 1 1 1 1 1 1 1 1 1 1 1 1 1 1 1 1 
1 1 1 1 1 1 1 1 1 1 1 1 1 1 1 1 1 1 1 1 1 1 1 1 1 1 1 1 1 1 1 1 
1 1 1 1 1 1 1 1 1 1 1 1 1 1 1 1 1 1 1 1 1 1 1 1 1 1 1 1 1 1 1 1 
1 1 1 1 1 1 1 1 1 1 1 1 1 1 1 1 1 1 1 1 1 1 1 1 1 1 1 1 1 1 1 1 
1 1 1 1 1 1 1 1 1 1 1 1 1 1 1 1 1 1 1 1 1 1 1 1 1 1 1 1 1 1 1 1 
1 1 1 1 1 1 1 1 1 1 1 1 1 1 1 1 1 1 1 1 1 1 1 1 1 1 1 1 1 1 1 1 
1 1 1 1 1 1 1 1 1 1 1 1 1 1 1 1 1 1 1 1 1 1 1 1 1 1 1 1 1 1 1 1 
1 1 1 1 1 1 1 1 1 1 1 1 1 1 1 1 1 1 1 1 1 1 1 1 1 1 1 1 1 1 1 1 
1 1 1 1 1 1 1 1 1 1 1 1 1 1 1 1 1 1 1 1 1 1 1 1 1 1 1 1 1 1 1 1 
1 1 1 1 1 1 1 1 1 1 1 1 1 1 1 1 1 1 1 1 1 1 1 1 1 1 1 1 1 1 1 1 
1 1 1 1 1 1 1 1 1 1 1 1 1 1 1 1 1 1 1 1 1 1 1 1 1 1 1 1 1 1 1 1 
0.01 0.01 0.01 0.01 0.01 0.01 0.01 0.01 0.01 0.01 0.01 0.01 0.01 0.01 0.01 0.01 0.01 0.01 0.01 0.01 0.01 0.01 0.01 0.01 0.01 0.01 0.01 0.01 0.01 0.01 0.01 0.01 
0.02 0.02 0.02 0.02 0.02 0.02 0.02 0.02 0.02 0.02 0.02 0.02 0.02 0.02 0.02 0.02 0.02 0.02 0.02 0.02 0.02 0.02 0.02 0.02 0.02 0.02 0.02 0.02 0.02 0.02 0.02 0.02 
0.03 0.03 0.03 0.03 0.03 0.03 0.03 0.03 0.03 0.03 0.03 0.03 0.03 0.03 0.03 0.03 0.03 0.03 0.03 0.03 0.03 0.03 0.03 0.03 0.03 0.03 0.03 0.03 0.03 0.03 0.03 0.03 
0.04 0.04 0.04 0.04 0.04 0.04 0.04 0.04 0.04 0.04 0.04 0.04 0.04 0.04 0.04 0.04 0.04 0.04 0.04 0.04 0.04 0.04 0.04 0.04 0.04 0.04 0.04 0.04 0.04 0.04 0.04 0.04 
0.125 0.125 0.125 0.125 0.125 0.125 0.125 0.125 0.125 0.125 0.125 0.125 0.125 0.125 0.125 0.125 0.125 0.125 0.125 0.125 0.125 0.125 0.125 0.125 0.125 0.125 0.125 0.125 0.125 0.125 0.125 0.125 
0.25 0.25 0.25 0.25 0.25 0.25 0.25 0.25 0.25 0.25 0.25 0.25 0.25 0.25 0.25 0.25 0.25 0.25 0.25 0.25 0.25 0.25 0.25 0.25 0.25 0.25 0.25 0.25 0.25 0.25 0.25 0.25 
0.375 0.375 0.375 0.375 0.375 0.375 0.375 0.375 0.375 0.375 0.375 0.375 0.375 0.375 0.375 0.375 0.375 0.375 0.375 0.375 0.375 0.375 0.375 0.375 0.375 0.375 0.375 0.375 0.375 0.375 0.375 0.375 
0.5 0.5 0.5 0.5 0.5 0.5 0.5 0.5 0.5 0.5 0.5 0.5 0.5 0.5 0.5 0.5 0.5 0.5 0.5 0.5 0.5 0.5 0.5 0.5 0.5 0.5 0.5 0.5 0.5 0.5 0.5 0.5 
0.625 0.625 0.625 0.625 0.625 0.625 0.625 0.625 0.625 0.625 0.625 0.625 0.625 0.625 0.625 0.625 0.625 0.625 0.625 0.625 0.625 0.625 0.625 0.625 0.625 0.625 0.625 0.625 0.625 0.625 0.625 0.625 
0.75 0.75 0.75 0.75 0.75 0.75 0.75 0.75 0.75 0.75 0.75 0.75 0.75 0.75 0.75 0.75 0.75 0.75 0.75 0.75 0.75 0.75 0.75 0.75 0.75 0.75 0.75 0.75 0.75 0.75 0.75 0.75 
0.875 0.875 0.875 0.875 0.875 0.875 0.875 0.875 0.875 0.875 0.875 0.875 0.875 0.875 0.875 0.875 0.875 0.875 0.875 0.875 0.875 0.875 0.875 0.875 0.875 0.875 0.875 0.875 0.875 0.875 0.875 0.875 
1 1 1 1 1 1 1 1 1 1 1 1 1 1 1 1 1 1 1 1 1 1 1 1 1 1 1 1 1 1 1 1 
